(set-info :smt-lib-version 2.6)
(set-logic QF_S)
(set-info :source |
Generated by: Murphy Berzish, Mitja Kulczynski, Federico Mora, Florin Manea, Joel Day, Dirk Nowotka, Vijay Ganesh, Zhengyang Lu
Generated on: 2020-10-01
Description: Translated from a collection of real-world regex queries, AutomataArk, collected by Loris D’Antoni and Fang Wang: https://github.com/lorisdanto/automatark
Application: Evaluate solvers on real-world regex queries
Target solver: Z3str3RE, CVC4, OSTRICH, Z3seq, Z3str3, Z3-Trau
Publications: Berzish, M., Kulczynski, M., Mora, F., Manea, F., Day, J. D., Nowotka, D., & Ganesh, V. (2021, July). An SMT solver for regular expressions and linear arithmetic over string length. In CAV 2021.
|)
(set-info :license "https://creativecommons.org/licenses/by/4.0/")
(set-info :category "industrial")
(set-info :status sat)

(declare-const X String)
(assert (str.in_re X (str.to_re "for/products/spyblocs/\u{13}Host:ocllceclbhs/gth\u{a}")))
(assert (not (str.in_re X (str.to_re "hirmvtg/ggqh.kqh\u{1b}Surveillance\u{13}Host:\u{a}"))))
(assert (not (str.in_re X (re.++ (re.union (re.++ (re.union (re.range "a" "z") (re.range "A" "Z")) (re.* re.allchar)) (re.++ (re.range "1" "9") (re.* re.allchar))) (str.to_re ".") (re.union (re.++ (re.union (str.to_re "j") (str.to_re "J")) (re.union (str.to_re "p") (str.to_re "P")) (re.union (str.to_re "g") (str.to_re "G"))) (re.++ (re.union (str.to_re "g") (str.to_re "G")) (re.union (str.to_re "i") (str.to_re "I")) (re.union (str.to_re "f") (str.to_re "F")))) (str.to_re "\u{a}")))))
(assert (not (str.in_re X (re.++ (str.to_re "/.php?") (re.+ (re.range "a" "z")) (str.to_re "=") (re.+ (re.union (re.range "a" "f") (re.range "A" "Z") (re.range "0" "9"))) (str.to_re "&") (re.+ (re.range "a" "z")) (str.to_re "=") (re.+ (re.range "0" "9")) (str.to_re "/iU\u{a}")))))
(assert (not (str.in_re X (str.to_re "PortweatherX-Mailer:\u{13}User-Agent:Toolbar\u{a}"))))
(check-sat)

(exit)
